/*********************************************
    * Lab01 - simple
    * Author: Coso
    * Creation Date: Mar, 2019
    *********************************************/
instance_name = "small_instance_18_simple";

d = 2;
r = 3;

SCj = [150 152];
Dk = [37 100 86];

Cjk = [[36 78 54]
 [47 35 67]];
